22
3 41 33 18 
2 58 19 
3 3 23 42 
2 53 43 
3 44 14 38 
3 19 21 56 
3 52 51 59 
3 55 47 20 
3 29 36 17 
3 51 33 39 
3 30 8 16 
2 10 48 
3 49 54 56 
3 2 11 9 
3 48 54 35 
2 25 27 
3 37 26 24 
2 46 22 
2 7 60 
3 42 6 57 
3 40 2 51 
3 1 30 45 
